GLPSOL--GLPK LP/MIP Solver 5.0
Parameter(s) specified in the command line:
 --lp ../modeles/5_59.lp --log 5_59.log
Reading problem data from '../modeles/5_59.lp'...
316 rows, 600 columns, 2090 non-zeros
295 integer variables, all of which are binary
927 lines were read
GLPK Integer Optimizer 5.0
316 rows, 600 columns, 2090 non-zeros
295 integer variables, all of which are binary
Preprocessing...
290 constraint coefficient(s) were reduced
316 rows, 595 columns, 2085 non-zeros
295 integer variables, all of which are binary
Scaling...
 A: min|aij| =  1.149e-03  max|aij| =  4.000e+00  ratio =  3.481e+03
GM: min|aij| =  1.302e-01  max|aij| =  7.681e+00  ratio =  5.900e+01
EQ: min|aij| =  1.695e-02  max|aij| =  1.000e+00  ratio =  5.900e+01
2N: min|aij| =  1.562e-02  max|aij| =  1.719e+00  ratio =  1.100e+02
Constructing initial basis...
Size of triangular part is 316
Solving LP relaxation...
GLPK Simplex Optimizer 5.0
316 rows, 595 columns, 2085 non-zeros
      0: obj =   1.000000000e+01 inf =   2.450e+01 (11)
     54: obj =   4.972701149e-01 inf =   0.000e+00 (0)
*   171: obj =  -2.233958838e+00 inf =   2.043e-15 (0)
OPTIMAL LP SOLUTION FOUND
Integer optimization begins...
Long-step dual simplex will be used
+   171: mip =     not found yet >=              -inf        (1; 0)
+   181: >>>>>  -2.233958838e+00 >=  -2.233958838e+00   0.0% (10; 0)
+   181: mip =  -2.233958838e+00 >=     tree is empty   0.0% (0; 19)
INTEGER OPTIMAL SOLUTION FOUND
Time used:   0.0 secs
Memory used: 0.9 Mb (987861 bytes)
